#######################################
### Exact MIP solver for the HHCRSP ###
#######################################
-- Instance file: new-instances/HHCRSP_400_80_46_1.0_C_R.txt
-- Max threads: 4
-- Time limit: 999999 seconds
-- Use initial solution: No
Trivial flow violations prevented generating 2660942 variables.
Version identifier: 20.1.0.0 | 2020-11-10 | 9bedb6d68
CPXPARAM_Threads                                 4
CPXPARAM_Emphasis_Memory                         1
CPXPARAM_TimeLimit                               999999
Tried aggregator 1 time.
Presolve has eliminated 76410 rows and 16186 columns...
LP Presolve eliminated 76410 rows and 16186 columns.
Reduced LP has 2633250 rows, 2502290 columns, and 70588147 nonzeros.
Presolve time = 76.82 sec. (15100.34 ticks)
Compression time = 19.25 sec. (4.99 ticks)
Compression reduced 1032.87 MB A matrix to 311.21 MB
Symmetry aggregator did 4398137 additional substitutions.
Elapsed time = 97.44 sec. (15818.78 ticks, 1 iterations)

Iteration log . . .
Iteration:     1   Dual objective     =             0.000000

Dual crossover.
  Dual:  Fixing 2615 variables.
     2614 DMoves:  Infeasibility  1.21730407e-12  Objective  4.59333333e+02
        0 DMoves:  Infeasibility  8.22601276e-13  Objective  4.59333333e+02
  Dual:  Pushed 132, exchanged 2483.
  Primal:  Fixing 2148 variables.
     2147 PMoves:  Infeasibility  1.62370117e-15  Objective  4.59333333e+02
        0 PMoves:  Infeasibility  3.23352456e-15  Objective  4.59333333e+02
  Primal:  Pushed 1952, exchanged 196.

Solution status from MIP model:
-- Processing time: 129.478 sec.
-- Memory used: 1657.88 MB
-- Best bound: inf
-- Obj value: 459.333
-- Gap: inf%
-- Total distance: 1378
-- Total tardiness: 0
-- Largest tardiness: 0
